20 64 
1 5 1
1 6 1
1 7 1
1 8 1
1 9 1
1 10 1
1 12 1
1 17 1
2 5 1
2 6 1
2 7 1
2 8 1
2 9 1
2 10 1
2 12 1
2 13 1
2 20 1
3 5 1
3 6 1
3 8 1
3 9 1
3 11 1
3 14 1
3 15 1
3 16 1
3 18 1
4 5 1
4 14 1
4 16 1
5 6 1
5 7 1
5 10 1
5 11 1
5 12 1
5 14 1
5 15 1
5 18 1
5 20 1
6 7 1
6 9 1
6 10 1
6 13 1
6 15 1
6 17 1
6 18 1
7 8 1
7 11 1
7 14 1
7 16 1
7 18 1
8 19 1
9 13 1
9 16 1
9 19 1
10 11 1
10 12 1
10 15 1
10 19 1
12 13 1
12 19 1
13 17 1
13 20 1
14 17 1
17 20 1
